
(set-logic ALL) 

(declare-datatype MyList ((Nil) (Cons (head Real) (tail MyList)) )) 
(declare-fun l0 () MyList) 
(declare-fun l1 () MyList) 
(declare-fun l2 () MyList) 
(declare-fun l3 () MyList) 
(declare-fun i0 () Real) 
(declare-fun i1 () Real) 
(assert (not (= l3 Nil)) )
(assert (and (is-Nil l3) (is-Cons l0)) )
(assert (is-Nil Nil) )
(assert (not (is-Nil l0)) )
(assert (and (= l0 l0) (is-Cons Nil)) )
(assert (not (is-Cons l0)) )
(assert (or (is-Cons Nil) (is-Cons Nil) (= l1 Nil)) )
(assert (and (is-Nil Nil) (= l0 Nil) (= l1 Nil)) )
(check-sat)
